Written by PySCF, units are A
1.0
      17.50000000        0.00000000        0.00000000
       0.00000000       17.50000000        0.00000000
       0.00000000        0.00000000       44.80000000
H
32
Cartesian
       0.00000000        0.00000000        0.00000000
       0.00000000        0.00000000        1.40000000
       0.00000000        0.00000000        2.80000000
       0.00000000        0.00000000        4.20000000
       0.00000000        0.00000000        5.60000000
       0.00000000        0.00000000        7.00000000
       0.00000000        0.00000000        8.40000000
       0.00000000        0.00000000        9.80000000
       0.00000000        0.00000000       11.20000000
       0.00000000        0.00000000       12.60000000
       0.00000000        0.00000000       14.00000000
       0.00000000        0.00000000       15.40000000
       0.00000000        0.00000000       16.80000000
       0.00000000        0.00000000       18.20000000
       0.00000000        0.00000000       19.60000000
       0.00000000        0.00000000       21.00000000
       0.00000000        0.00000000       22.40000000
       0.00000000        0.00000000       23.80000000
       0.00000000        0.00000000       25.20000000
       0.00000000        0.00000000       26.60000000
       0.00000000        0.00000000       28.00000000
       0.00000000        0.00000000       29.40000000
       0.00000000        0.00000000       30.80000000
       0.00000000        0.00000000       32.20000000
       0.00000000        0.00000000       33.60000000
       0.00000000        0.00000000       35.00000000
       0.00000000        0.00000000       36.40000000
       0.00000000        0.00000000       37.80000000
       0.00000000        0.00000000       39.20000000
       0.00000000        0.00000000       40.60000000
       0.00000000        0.00000000       42.00000000
       0.00000000        0.00000000       43.40000000
