Written by PySCF, units are A
1.0
       9.88000000        0.00000000        0.00000000
       0.00000000       17.50000000        0.00000000
       0.00000000        0.00000000       17.50000000
C H
8 8
Cartesian
      -0.58927310        0.32623919        0.00000000
       0.59162811       -0.32616939        0.00000000
       1.88072690        0.32623919        0.00000000
       3.06162811       -0.32616939        0.00000000
       4.35072690        0.32623919        0.00000000
       5.53162811       -0.32616939        0.00000000
       6.82072690        0.32623919        0.00000000
       8.00162811       -0.32616939        0.00000000
      -0.58661020        1.41265303        0.00000000
       0.58896520       -1.41258323        0.00000000
       1.88338980        1.41265303        0.00000000
       3.05896520       -1.41258323        0.00000000
       4.35338980        1.41265303        0.00000000
       5.52896520       -1.41258323        0.00000000
       6.82338980        1.41265303        0.00000000
       7.99896520       -1.41258323        0.00000000
